CPXPARAM_Read_DataCheck                          1
Found incumbent of value 0.000000 after 0.00 sec. (0.26 ticks)
Tried aggregator 1 time.
MIP Presolve eliminated 5 rows and 0 columns.
MIP Presolve modified 1 coefficients.
Reduced MIP has 1026 rows, 10010 columns, and 45030 nonzeros.
Reduced MIP has 10010 binaries, 0 generals, 0 SOSs, and 0 indicators.
Presolve time = 0.02 sec. (17.20 ticks)
Tried aggregator 1 time.
Reduced MIP has 1026 rows, 10010 columns, and 45030 nonzeros.
Reduced MIP has 10010 binaries, 0 generals, 0 SOSs, and 0 indicators.
Presolve time = 0.02 sec. (19.16 ticks)
Probing time = 0.00 sec. (3.30 ticks)
Clique table members: 10000.
MIP emphasis: balance optimality and feasibility.
MIP search method: dynamic search.
Parallel mode: deterministic, using up to 4 threads.
Root relaxation solution time = 0.09 sec. (84.09 ticks)

        Nodes                                         Cuts/
   Node  Left     Objective  IInf  Best Integer    Best Bound    ItCnt     Gap

*     0+    0                            0.0000    61823.0000              --- 
      0     0    33734.5910    10        0.0000    33734.5910     2027     --- 
*     0+    0                        15789.0000    33734.5910           113.66%
      0     0        cutoff          15789.0000    15789.0000     4140    0.00%
Elapsed time = 1.56 sec. (869.39 ticks, tree = 0.01 MB, solutions = 2)

Clique cuts applied:  344
Cover cuts applied:  1
Zero-half cuts applied:  9
Gomory fractional cuts applied:  2

Root node processing (before b&c):
  Real time             =    1.56 sec. (870.04 ticks)
Parallel b&c, 4 threads:
  Real time             =    0.00 sec. (0.00 ticks)
  Sync time (average)   =    0.00 sec.
  Wait time (average)   =    0.00 sec.
                          ------------
Total (root+branch&cut) =    1.56 sec. (870.04 ticks)
